NAME : mr43
COMMENT : 43-city problem (DISC)
TYPE : TSP
DIMENSION : 43
EDGE_WEIGHT_TYPE : EUC_2D
NODE_COORD_SECTION
1 12 68
2 61 63
3 14 28
4 25 90
5 33 21
6 86 41
7 67 100
8 55 74
9 3 45
10 74 57
11 40 42
12 81 73
13 26 40
14 6 68
15 87 71
16 23 61
17 41 55
18 32 21
19 8 20
20 85 80
21 85 30
22 98 66
23 39 30
24 96 15
25 45 41
26 67 32
27 9 25
28 90 59
29 30 25
30 27 75
31 1 73
32 55 70
33 48 11
34 64 95
35 98 51
36 91 90
37 92 20
38 53 60
39 11 97
40 19 100
41 96 3
42 42 49
43 87 30
EOF
